NAME: tsp45_8
COMMENT: 45-tsp problem (Padberg/Rinaldi)
TYPE: TSP
DIMENSION: 45
EDGE_WEIGHT_TYPE : EUC_2D
NODE_COORD_SECTION
1 17 6
2 19 16
3 10 39
4 18 31
5 19 22
6 34 2
7 1 10
8 26 23
9 9 16
10 26 8
11 8 13
12 13 7
13 1 28
14 35 17
15 1 11
16 18 30
17 34 30
18 21 22
19 21 10
20 20 4
21 24 30
22 8 5
23 5 32
24 21 33
25 21 19
26 31 10
27 1 25
28 2 30
29 27 30
30 13 3
31 22 8
32 24 21
33 12 40
34 3 33
35 34 33
36 11 19
37 3 6
38 21 28
39 34 12
40 2 2
41 36 11
42 18 34
43 7 13
44 3 26
45 21 1
